    0     0
    1     6
    2     5
    3     4
    4     6
    5     8
    6     9
    7     5
    8     5
    9    12
   10    11
   11    12
   12    16
   13    14
   14     4
   15     5
   16    15
   17    17
   18    18
   19    18
   20    21
   21     3
   22     4
   23    24
   24    21
   25    22
   26    27
   27    26
   28     6
   29     6
   30    73
   31    28
   32    28
   33    31
   34    32
   35     5
   36     3
   37    35
   38    35
   39    35
   40    38
   41    40
   42     4
   43     4
   44    43
   45    41
   46    42
   47    44
   48    45
   49     8
   50     3
